NAME          
ROWS
 N  OBJ
 L  c1
COLUMNS
    MARKER    'MARKER'                 'INTORG'
    x[1]      c1        794
    x[1]      OBJ       -409
    x[2]      c1        613
    x[2]      OBJ       -147
    x[3]      c1        362
    x[3]      OBJ       -391
    x[4]      c1        821
    x[4]      OBJ       -609
    x[5]      c1        706
    x[5]      OBJ       -638
    x[6]      c1        146
    x[6]      OBJ       -688
    x[7]      c1        519
    x[7]      OBJ       -120
    x[8]      c1        920
    x[8]      OBJ       -900
    x[9]      c1        307
    x[9]      OBJ       -991
    x[10]     c1        823
    x[10]     OBJ       -824
    x[11]     c1        959
    x[11]     OBJ       -500
    x[12]     c1        538
    x[12]     OBJ       -715
    x[13]     c1        480
    x[13]     OBJ       -257
    x[14]     c1        433
    x[14]     OBJ       -145
    x[15]     c1        738
    x[15]     OBJ       -351
    x[16]     c1        305
    x[16]     OBJ       -299
    x[17]     c1        6
    x[17]     OBJ       -693
    x[18]     c1        320
    x[18]     OBJ       -518
    x[19]     c1        599
    x[19]     OBJ       -834
    x[20]     c1        593
    x[20]     OBJ       -577
    x[21]     c1        249
    x[21]     OBJ       -122
    x[22]     c1        900
    x[22]     OBJ       -657
    x[23]     c1        575
    x[23]     OBJ       -724
    x[24]     c1        715
    x[24]     OBJ       -54
    x[25]     c1        354
    x[25]     OBJ       -875
    x[26]     c1        219
    x[26]     OBJ       -347
    x[27]     c1        826
    x[27]     OBJ       -452
    x[28]     c1        239
    x[28]     OBJ       -952
    x[29]     c1        135
    x[29]     OBJ       -772
    x[30]     c1        173
    x[30]     OBJ       -792
RHS
    rhs       c1        7684
RANGES
BOUNDS
 LO bounds    x[1]      0
 PL bounds    x[1]
 LO bounds    x[2]      0
 PL bounds    x[2]
 LO bounds    x[3]      0
 PL bounds    x[3]
 LO bounds    x[4]      0
 PL bounds    x[4]
 LO bounds    x[5]      0
 PL bounds    x[5]
 LO bounds    x[6]      0
 PL bounds    x[6]
 LO bounds    x[7]      0
 PL bounds    x[7]
 LO bounds    x[8]      0
 PL bounds    x[8]
 LO bounds    x[9]      0
 PL bounds    x[9]
 LO bounds    x[10]     0
 PL bounds    x[10]
 LO bounds    x[11]     0
 PL bounds    x[11]
 LO bounds    x[12]     0
 PL bounds    x[12]
 LO bounds    x[13]     0
 PL bounds    x[13]
 LO bounds    x[14]     0
 PL bounds    x[14]
 LO bounds    x[15]     0
 PL bounds    x[15]
 LO bounds    x[16]     0
 PL bounds    x[16]
 LO bounds    x[17]     0
 PL bounds    x[17]
 LO bounds    x[18]     0
 PL bounds    x[18]
 LO bounds    x[19]     0
 PL bounds    x[19]
 LO bounds    x[20]     0
 PL bounds    x[20]
 LO bounds    x[21]     0
 PL bounds    x[21]
 LO bounds    x[22]     0
 PL bounds    x[22]
 LO bounds    x[23]     0
 PL bounds    x[23]
 LO bounds    x[24]     0
 PL bounds    x[24]
 LO bounds    x[25]     0
 PL bounds    x[25]
 LO bounds    x[26]     0
 PL bounds    x[26]
 LO bounds    x[27]     0
 PL bounds    x[27]
 LO bounds    x[28]     0
 PL bounds    x[28]
 LO bounds    x[29]     0
 PL bounds    x[29]
 LO bounds    x[30]     0
 PL bounds    x[30]
ENDATA
